34 34
21
3 3 6 31
3 4 27 6
3 5 0 29
3 6 27 0
3 7 0 22
3 8 6 0
3 9 3 25
3 10 27 10
3 11 6 8
3 12 6 19
3 13 24 21
3 14 27 20
3 21 24 0
3 22 0 0
3 25 3 0
3 34 9 0
4 4 30 0
4 5 30 29
4 11 30 4
4 14 30 15
12 34 12 0
